
Gurobi 10.0.0 (linux64) logging started Wed Nov 16 06:28:48 2022

Set parameter LogFile to value "../results/k03_n150_d005/k03_n150_d005_band150_3_A-MILO_log.txt"
Gurobi Optimizer version 10.0.0 build v10.0.0rc2 (linux64)

CPU model: Intel(R) Xeon(R) CPU E5-2630 v4 @ 2.20GHz, instruction set [SSE2|AVX|AVX2]
Thread count: 20 physical cores, 40 logical processors, using up to 10 threads

Optimize a model with 5460 rows, 1040 columns and 16380 nonzeros
Model fingerprint: 0x0cbb70a7
Coefficient statistics:
  Matrix range     [1e+00, 1e+00]
  Objective range  [1e+00, 1e+00]
  Bounds range     [1e+00, 1e+00]
  RHS range        [1e+00, 2e+00]
Presolve removed 29 rows and 7 columns
Presolve time: 0.03s
Presolved: 1028 rows, 6461 columns, 17384 nonzeros

Iteration    Objective       Primal Inf.    Dual Inf.      Time
       0      handle free variables                          0s
Extra simplex iterations after uncrush: 2
    2726    2.9600000e+02   0.000000e+00   0.000000e+00      0s

Solved in 2726 iterations and 0.15 seconds (0.07 work units)
Optimal objective  2.960000000e+02
